AES/1_2_8/ssaes_r1-20_c2_rw1_e8_f0_k1-20_aes_1base_box_aes_mc_bidirectional/ExperimentMinisat_r18_k14cnf_2011-12-02-175035/Result
WARNING: for repeatability, setting FPU to use double precision
============================[ Problem Statistics ]=============================
|                                                                             |
|  Number of variables:          1488                                         |
|  Number of clauses:          241012                                         |
|  Parse time:                   0.14 s                                       |
|  Eliminated clauses:           0.01 Mb                                      |
|  Simplification time:          8.14 s                                       |
|                                                                             |
=============================[ Search Statistics ]==============================
| Conflicts  |          ORIGINAL         |          LEARNT          | Progress |
|            |    Vars  Clauses Literals |    Limit  Clauses Lit/Cl |          |
================================================================================
|        100 |    1008   239764  1632616 |    87913      100     23 | 11.828 % |
|        250 |    1008   239764  1632616 |    96704      250     22 | 11.828 % |
|        475 |    1008   239764  1632616 |   106375      475     20 | 11.828 % |
|        812 |    1008   239764  1632616 |   117012      812     20 | 11.828 % |
|       1318 |    1008   239764  1632616 |   128714     1318     22 | 11.828 % |
|       2077 |    1008   239764  1632616 |   141585     2077     21 | 11.828 % |
|       3216 |    1008   239764  1632616 |   155744     3216     22 | 11.828 % |
|       4924 |    1008   239764  1632616 |   171318     4924     22 | 11.828 % |
|       7486 |    1008   239764  1632616 |   188450     7486     22 | 11.828 % |
|      11330 |    1008   239764  1632616 |   207295    11330     22 | 11.828 % |
|      17096 |    1008   239764  1632616 |   228024    17096     21 | 11.828 % |
|      25745 |    1008   239764  1632616 |   250827    25745     22 | 11.828 % |
|      38719 |    1008   239764  1632616 |   275910    38719     21 | 11.828 % |
|      58180 |    1008   239764  1632616 |   303501    58180     21 | 11.828 % |
===============================================================================
restarts              : 188
conflicts             : 59294          (640 /sec)
decisions             : 73922          (0.00 % random) (798 /sec)
propagations          : 12467369       (134593 /sec)
conflict literals     : 1216447        (19.72 % deleted)
Memory used           : 43.00 MB
CPU time              : 92.6299 s

SATISFIABLE
